results_rootrelaxation/bin018_060_038.srr.sol
solution status: optimal solution found
objective value:                                    0
_var2703_                          0.0956987230475326 	(obj:0)
_var2713_                           0.138988646771126 	(obj:0)
_var2725_                          0.0509528980287183 	(obj:0)
_var2739_                          0.0249875856078425 	(obj:0)
_var2758_                          0.0261959310081682 	(obj:0)
_var2759_                           0.262061262147696 	(obj:0)
_var2798_                          0.0103970393392206 	(obj:0)
_var2817_                          0.0950498604474236 	(obj:0)
_var2827_                          0.0167552685182918 	(obj:0)
_var2842_                          0.0543272074215551 	(obj:0)
_var2844_                          0.0712856715288928 	(obj:0)
_var2849_                         0.00542875489135247 	(obj:0)
_var2854_                           0.448871172837033 	(obj:0)
_var2856_                           0.132009204268266 	(obj:0)
_var2857_                           0.177226098329719 	(obj:0)
_var2869_                           0.257552007296107 	(obj:0)
_var2877_                           0.229791919381406 	(obj:0)
_var2885_                            0.37727838292635 	(obj:0)
_var2887_                           0.120659288475886 	(obj:0)
_var2894_                          0.0529662525173557 	(obj:0)
_var2896_                           0.130042109616952 	(obj:0)
_var2904_                           0.129740853021147 	(obj:0)
_var2906_                           0.241695087860779 	(obj:0)
_var2908_                         0.000745377157853076 	(obj:0)
_var2909_                           0.352981630808692 	(obj:0)
_var2916_                           0.085293505332759 	(obj:0)
_var2917_                            0.10474053572323 	(obj:0)
_var2925_                           0.153344554008352 	(obj:0)
_var2928_                           0.120009019834098 	(obj:0)
_var2934_                          0.0883333830276715 	(obj:0)
_var2945_                          0.0317681355946181 	(obj:0)
_var2951_                          0.0597735938000237 	(obj:0)
_var2952_                          0.0588011603619323 	(obj:0)
_var2954_                          0.0790379660640849 	(obj:0)
_var2955_                          0.0440296578850526 	(obj:0)
_var2958_                         0.00294702911986178 	(obj:0)
_var2959_                         0.00566549835859503 	(obj:0)
_var2960_                           0.126085652971995 	(obj:0)
_var2963_                          0.0879578993059566 	(obj:0)
_var2964_                           0.162081390233081 	(obj:0)
_var2968_                           0.141739668181513 	(obj:0)
_var2969_                          0.0795776587570932 	(obj:0)
_var2970_                          0.0373392956675131 	(obj:0)
_var2975_                            0.21005198398607 	(obj:0)
_var2984_                           0.215847817114929 	(obj:0)
_var2986_                           0.364928740275305 	(obj:0)
_var2989_                           0.346305394807217 	(obj:0)
_var2995_                          0.0746252804308152 	(obj:0)
_var2997_                          0.0626853326026359 	(obj:0)
_var2999_                            0.27676040323935 	(obj:0)
_var3002_                            0.16124760510379 	(obj:0)
_var3009_                          0.0856881793371554 	(obj:0)
_var3010_                         0.00947402186190366 	(obj:0)
_var3011_                           0.144163485990756 	(obj:0)
_var3013_                          0.0286444638463299 	(obj:0)
_var3019_                          0.0623434015221319 	(obj:0)
_var3023_                           0.145133650518641 	(obj:0)
_var3026_                           0.190371786262537 	(obj:0)
_var3028_                          0.0775300020092827 	(obj:0)
_var3031_                          0.0387436776983482 	(obj:0)
_var3032_                            0.22954886168215 	(obj:0)
_var3033_                           0.238518257882503 	(obj:0)
_var3040_                          0.0171390341627762 	(obj:0)
_var3042_                           0.159503071504642 	(obj:0)
_var3044_                           0.103000616947541 	(obj:0)
_var3046_                           0.138768826840774 	(obj:0)
_var3047_                         0.000766393120923272 	(obj:0)
_var3048_                           0.184842083391682 	(obj:0)
_var3049_                          0.0447325270876126 	(obj:0)
_var3053_                           0.189356062293428 	(obj:0)
_var3054_                           0.165997082304507 	(obj:0)
_var3055_                          0.0765027909494027 	(obj:0)
_var3056_                          0.0882796281601336 	(obj:0)
_var3057_                          0.0427852607818545 	(obj:0)
_var3059_                          0.0718491761289638 	(obj:0)
_var3061_                           0.122238935664521 	(obj:0)
_var3064_                           0.294153862604359 	(obj:0)
_var3069_                          0.0785699189165803 	(obj:0)
_var3073_                           0.010927735633147 	(obj:0)
_var3074_                         0.00939884283542552 	(obj:0)
_var3076_                           0.216964709763591 	(obj:0)
_var3078_                          0.0842039591466349 	(obj:0)
_var3080_                          0.0119844348072098 	(obj:0)
_var3083_                          0.0866712288920597 	(obj:0)
_var3085_                           0.329262270553714 	(obj:0)
_var3086_                           0.141453384426055 	(obj:0)
_var3093_                           0.125393348405936 	(obj:0)
_var3094_                           0.103281196968212 	(obj:0)
_var3095_                          0.0194574259332829 	(obj:0)
_var3096_                           0.176277853607494 	(obj:0)
_var3098_                          0.0829502088363224 	(obj:0)
_var3106_                           0.180850882992475 	(obj:0)
_var3107_                         0.00970101329521316 	(obj:0)
_var3108_                         0.00607584336184972 	(obj:0)
_var3109_                           0.361957985347399 	(obj:0)
_var3110_                          0.0700457014266995 	(obj:0)
_var3112_                          0.0539840673564338 	(obj:0)
_var3114_                           0.177970284587656 	(obj:0)
_var3116_                          0.0496745303412047 	(obj:0)
_var3117_                          0.0942351143412589 	(obj:0)
_var3120_                           0.109265342524122 	(obj:0)
_var3122_                           0.224665323156016 	(obj:0)
_var3124_                           0.243542134917199 	(obj:0)
_var3126_                           0.046900040686416 	(obj:0)
_var3127_                          0.0930658917780567 	(obj:0)
_var3131_                           0.258672249734479 	(obj:0)
_var3136_                           0.241319994097275 	(obj:0)
_var3137_                             0.2473204527271 	(obj:0)
_var3138_                          0.0127321567052682 	(obj:0)
_var3140_                          0.0865065303274771 	(obj:0)
_var3141_                          0.0785059667929819 	(obj:0)
_var3145_                           0.179951897010366 	(obj:0)
_var3148_                           0.183875727600075 	(obj:0)
_var3149_                           0.107046306359308 	(obj:0)
_var3153_                           0.130534244775521 	(obj:0)
_var3157_                           0.146472256689359 	(obj:0)
_var3158_                          0.0368244852379711 	(obj:0)
_var3159_                           0.135251122249692 	(obj:0)
_var3161_                          0.0118691741347884 	(obj:0)
_var3163_                           0.208051119044014 	(obj:0)
_var3165_                          0.0987807313800557 	(obj:0)
_var3166_                          0.0257075068971114 	(obj:0)
_var3168_                           0.237678620824891 	(obj:0)
_var3169_                           0.299684141210543 	(obj:0)
_var3170_                           0.103190218223683 	(obj:0)
_var3171_                          0.0686197752125476 	(obj:0)
_var3172_                          0.0249191526412472 	(obj:0)
_var3175_                          0.0772083301032114 	(obj:0)
_var3177_                          0.0759591589003872 	(obj:0)
_var3178_                         0.00931612002827767 	(obj:0)
_var3180_                          0.0274165959654903 	(obj:0)
_var3181_                          0.0637773484592269 	(obj:0)
_var3182_                         0.000995257197379265 	(obj:0)
_var3184_                           0.120192236067927 	(obj:0)
_var3186_                           0.172928186300782 	(obj:0)
_var3187_                            0.14093692265958 	(obj:0)
_var3188_                          0.0536298037459062 	(obj:0)
_var3192_                           0.118420732499946 	(obj:0)
_var3193_                         0.00348105190045802 	(obj:0)
_var3194_                          0.0483346791913987 	(obj:0)
_var3195_                         0.000297718968266761 	(obj:0)
_var3197_                          0.0351917302256587 	(obj:0)
_var3198_                          0.0341964405447113 	(obj:0)
_var3201_                          0.0548491403686474 	(obj:0)
_var3202_                          0.0150101473219944 	(obj:0)
_var3203_                          0.0121090113668216 	(obj:0)
_var3204_                          0.0547563496902261 	(obj:0)
_var3207_                           0.106030035145147 	(obj:0)
_var3211_                          0.0179769630373661 	(obj:0)
